5
15
48
40	24
1	2	23	3	8	3	
2	4	6	9	8	5	5	4	11	2	
3	5	6	7	6	5	6	4	5	3	23	2	
4	3	24	3	11	2	5	2	
5	2	5	3	4	3	
6	5	6	5	6	4	5	4	5	4	8	2	
7	1	5	5	
8	1	9	3	
9	5	8	8	6	5	9	3	11	2	8	2	
10	4	6	9	4	6	5	3	6	2	
11	4	8	7	8	5	5	3	8	2	
12	5	8	10	11	6	8	5	18	4	7	2	
13	3	10	3	6	3	5	2	
14	1	5	6	
15	3	6	7	8	6	21	2	
